50	
18550	
18600	
435	435
600	599
30	29
966	965
822	822
3	2
552	550
765	764
780	779
708	707
789	788
189	188
465	464
507	507
30	28
741	741
27	27
180	179
480	479
594	594
678	678
720	720
882	881
531	529
495	494
33	31
6	5
489	488
993	991
162	161
291	290
858	857
825	825
33	32
225	224
504	502
966	966
633	632
645	643
750	748
891	889
159	158
528	526
876	876
48	47
276	276
114	113
159	157
675	673
924	922